/*********************************************
 * OPL 12.6.0.0 Data
 * Author: Adrian Rodriguez Bazaga, Pau Rodriguez Esmerats
 * Creation Date: 09/12/2017 at 00:43:29
 *********************************************/

maxConsec=18;
maxPresence=18;
maxHours=11;
minHours=6;
hours=20;
demand= [14 21 21 20 18 20 17 21 20 20 19 17 14 13 9 4 0 0 0 0  ];
nNurses=23;
